<number of tasks>
70

<cycle time>
207

<task times>
1 17
2 66
3 54
4 52
5 6
6 88
7 21
8 128
9 68
10 70
11 85
12 21
13 134
14 135
15 94
16 90
17 50
18 143
19 19
20 54
21 50
22 40
23 73
24 12
25 152
26 42
27 45
28 74
29 26
30 11
31 31
32 50
33 102
34 46
35 35
36 40
37 2
38 1
39 3
40 13
41 16
42 25
43 21
44 43
45 30
46 83
47 89
48 56
49 59
50 43
51 11
52 26
53 44
54 121
55 38
56 68
57 22
58 7
59 16
60 32
61 25
62 27
63 156
64 28
65 15
66 26
67 18
68 72
69 23
70 27

<precedence relations>
1,2
1,41
1,69
1,70
2,3
3,4
3,68
4,6
4,7
5,6
5,24
5,30
6,8
7,8
8,12
9,10
10,11
11,12
12,13
12,14
13,23
14,23
15,16
16,17
16,18
17,19
18,19
19,20
19,22
19,57
20,21
21,23
22,23
23,25
23,31
23,33
24,25
25,26
25,27
25,28
25,29
26,35
27,35
28,35
29,35
30,31
31,32
32,35
33,34
34,35
35,36
35,44
35,48
35,51
35,53
35,56
35,60
35,61
35,62
36,37
37,38
38,39
39,40
40,42
41,42
42,43
43,50
44,45
45,46
46,47
47,50
48,49
49,50
51,52
52,54
53,54
54,55
57,58
58,59
59,60
61,65
62,63
63,64
64,65
64,66
64,67

<setup times forward>
1,9:15
1,10:5
1,11:4
1,15:15
1,16:5
1,17:4
1,18:8
1,19:8
1,21:13
1,22:8
1,30:5
1,41:15
1,57:13
1,58:4
1,59:11
1,69:4
1,70:4
2,9:15
2,10:5
2,11:4
2,15:15
2,16:5
2,17:4
2,18:8
2,19:8
2,21:13
2,22:8
2,30:5
2,41:15
2,57:13
2,58:4
2,59:11
2,69:4
2,70:4
3,9:15
3,10:5
3,11:4
3,15:15
3,16:5
3,17:4
3,18:8
3,19:8
3,21:13
3,22:8
3,30:5
3,41:15
3,57:13
3,58:4
3,59:11
3,68:2
3,69:4
3,70:4
4,6:5
4,7:15
4,9:15
4,10:5
4,11:4
4,15:15
4,16:5
4,17:4
4,18:8
4,19:8
4,21:13
4,22:8
4,30:5
4,41:15
4,57:13
4,58:4
4,59:11
4,68:2
4,69:4
4,70:4
5,6:5
5,7:15
5,9:15
5,10:5
5,11:4
5,15:15
5,16:5
5,17:4
5,18:8
5,19:8
5,21:13
5,22:8
5,30:5
5,41:15
5,57:13
5,58:4
5,59:11
5,68:2
5,69:4
5,70:4
6,7:20
6,8:10
6,9:20
6,10:10
6,11:9
6,15:20
6,17:9
6,18:3
6,19:3
6,20:5
6,21:8
6,22:3
6,24:5
6,41:20
6,57:8
6,58:9
6,59:16
6,68:3
6,69:9
6,70:9
7,5:15
7,6:20
7,8:10
7,10:10
7,11:11
7,16:20
7,17:11
7,18:23
7,19:23
7,20:15
7,21:28
7,22:23
7,24:15
7,30:20
7,57:28
7,58:11
7,59:4
7,68:17
7,69:11
7,70:11
8,9:10
8,11:1
8,12:1
8,15:10
8,16:10
8,17:1
8,18:13
8,19:13
8,20:5
8,21:18
8,22:13
8,24:5
8,30:10
8,41:10
8,57:18
8,58:1
8,59:6
8,68:7
8,69:1
8,70:1
9,1:15
9,2:15
9,3:15
9,4:15
9,5:15
9,6:20
9,8:10
9,10:10
9,16:20
9,17:11
9,18:23
9,19:23
9,20:15
9,21:28
9,22:23
9,24:15
9,30:20
9,57:28
9,58:11
9,59:4
9,68:17
9,69:11
9,70:11
10,1:5
10,2:5
10,3:5
10,4:5
10,5:5
10,6:10
10,7:10
10,11:1
10,15:10
10,16:10
10,17:1
10,18:13
10,19:13
10,20:5
10,21:18
10,22:13
10,24:5
10,30:10
10,41:10
10,57:18
10,58:1
10,59:6
10,68:7
10,69:1
10,70:1
11,1:4
11,2:4
11,3:4
11,4:4
11,5:4
11,6:9
11,7:11
11,8:1
11,15:11
11,16:9
11,18:12
11,19:12
11,20:4
11,21:17
11,22:12
11,24:4
11,30:9
11,41:11
11,57:17
11,59:7
11,68:6
12,13:17
12,14:4
12,15:11
12,16:9
12,18:12
12,19:12
12,20:4
12,21:17
12,22:12
12,24:4
12,30:9
12,41:11
12,57:17
12,59:7
12,68:6
13,14:13
13,15:28
13,16:8
13,17:17
13,18:5
13,19:5
13,20:13
13,22:5
13,23:21
13,24:13
13,30:8
13,41:28
13,58:17
13,59:24
13,68:11
13,69:17
13,70:17
14,13:13
14,15:15
14,16:5
14,17:4
14,18:8
14,19:8
14,21:13
14,22:8
14,23:8
14,30:5
14,41:15
14,57:13
14,58:4
14,59:11
14,68:2
14,69:4
14,70:4
15,1:15
15,2:15
15,3:15
15,4:15
15,5:15
15,6:20
15,8:10
15,10:10
15,11:11
15,12:11
15,13:28
15,14:15
15,16:20
15,24:15
15,30:20
15,68:17
15,69:11
15,70:11
16,1:5
16,2:5
16,3:5
16,4:5
16,5:5
16,7:20
16,8:10
16,9:20
16,10:10
16,11:9
16,12:9
16,13:8
16,14:5
16,17:9
16,18:3
16,24:5
16,41:20
16,68:3
16,69:9
16,70:9
17,1:4
17,2:4
17,3:4
17,4:4
17,5:4
17,6:9
17,7:11
17,8:1
17,9:11
17,10:1
17,13:17
17,14:4
17,18:12
17,19:12
17,24:4
17,30:9
17,41:11
17,68:6
18,1:8
18,2:8
18,3:8
18,4:8
18,5:8
18,6:3
18,7:23
18,8:13
18,9:23
18,10:13
18,11:12
18,12:12
18,13:5
18,14:8
18,17:12
18,24:8
18,30:3
18,41:23
18,68:6
18,69:12
18,70:12
19,1:8
19,2:8
19,3:8
19,4:8
19,5:8
19,6:3
19,7:23
19,8:13
19,9:23
19,10:13
19,11:12
19,12:12
19,13:5
19,14:8
19,20:8
19,24:8
19,30:3
19,41:23
19,57:5
19,68:6
19,69:12
19,70:12
20,6:5
20,7:15
20,8:5
20,9:15
20,10:5
20,11:4
20,12:4
20,13:13
20,21:13
20,22:8
20,30:5
20,41:15
20,57:13
20,58:4
20,59:11
20,68:2
20,69:4
20,70:4
21,1:13
21,2:13
21,3:13
21,4:13
21,5:13
21,6:8
21,7:28
21,8:18
21,9:28
21,10:18
21,11:17
21,12:17
21,14:13
21,22:5
21,23:21
21,24:13
21,30:8
21,41:28
21,58:17
21,59:24
21,68:11
21,69:17
21,70:17
22,1:8
22,2:8
22,3:8
22,4:8
22,5:8
22,6:3
22,7:23
22,8:13
22,9:23
22,10:13
22,11:12
22,12:12
22,13:5
22,14:8
22,20:8
22,21:5
22,23:16
22,24:8
22,30:3
22,41:23
22,57:5
22,58:12
22,59:19
22,68:6
22,69:12
22,70:12
23,24:8
23,25:13
23,30:13
23,41:7
23,57:21
23,58:4
23,59:3
23,68:10
23,69:4
23,70:4
24,6:5
24,7:15
24,8:5
24,9:15
24,10:5
24,11:4
24,12:4
24,13:13
24,15:15
24,16:5
24,17:4
24,18:8
24,19:8
24,21:13
24,22:8
24,23:8
24,25:5
24,30:5
24,31:8
24,32:5
24,33:8
24,34:17
24,41:15
24,57:13
24,58:4
24,59:11
24,68:2
24,69:4
24,70:4
25,26:12
25,27:12
25,28:12
25,29:3
25,31:13
25,33:13
25,34:12
25,41:20
25,57:8
25,58:9
25,59:16
25,68:3
25,69:9
25,70:9
26,29:15
26,30:12
26,31:25
26,32:12
26,33:25
26,35:15
26,41:32
26,57:4
26,58:21
26,59:28
26,68:15
26,69:21
26,70:21
27,29:15
27,30:12
27,31:25
27,32:12
27,33:25
27,35:15
27,41:32
27,57:4
27,58:21
27,59:28
27,68:15
27,69:21
27,70:21
28,29:15
28,30:12
28,31:25
28,32:12
28,33:25
28,35:15
28,41:32
28,57:4
28,58:21
28,59:28
28,68:15
28,69:21
28,70:21
29,26:15
29,27:15
29,28:15
29,30:3
29,31:10
29,32:3
29,33:10
29,34:15
29,41:17
29,57:11
29,58:6
29,59:13
29,69:6
29,70:6
30,1:5
30,2:5
30,3:5
30,4:5
30,7:20
30,8:10
30,9:20
30,10:10
30,11:9
30,12:9
30,13:8
30,14:5
30,15:20
30,17:9
30,18:3
30,19:3
30,20:5
30,21:8
30,22:3
30,23:13
30,24:5
30,26:12
30,27:12
30,28:12
30,29:3
30,31:13
30,33:13
30,34:12
30,41:20
30,57:8
30,58:9
30,59:16
30,68:3
30,69:9
30,70:9
31,24:8
31,25:13
31,26:25
31,27:25
31,28:25
31,29:10
31,32:13
31,34:25
31,41:7
31,57:21
31,58:4
31,59:3
31,68:10
31,69:4
31,70:4
32,24:5
32,26:12
32,27:12
32,28:12
32,29:3
32,33:13
32,34:12
32,35:3
32,41:20
32,57:8
32,58:9
32,59:16
32,68:3
32,69:9
32,70:9
33,24:8
33,25:13
33,26:25
33,27:25
33,28:25
33,29:10
33,30:13
33,32:13
33,34:25
33,41:7
33,57:21
33,58:4
33,59:3
33,68:10
33,69:4
33,70:4
34,24:17
34,25:12
34,29:15
34,30:12
34,31:25
34,32:12
34,35:15
34,41:32
34,57:4
34,58:21
34,59:28
34,68:15
34,69:21
34,70:21
35,36:6
35,41:17
35,44:6
35,48:6
35,51:6
35,53:6
35,57:11
35,58:6
35,59:13
35,60:17
35,61:13
35,62:13
35,69:6
35,70:6
36,37:21
36,41:11
36,45:23
36,46:23
36,47:7
36,49:23
36,52:7
36,54:10
36,55:7
36,56:6
36,57:17
36,59:7
36,60:23
36,61:7
36,62:7
36,63:21
36,64:10
36,65:7
36,66:10
36,67:7
36,68:6
37,41:32
37,44:21
37,45:2
37,46:2
37,47:14
37,48:21
37,49:2
37,51:21
37,52:28
37,53:21
37,54:31
37,55:14
37,56:15
37,57:4
37,58:21
37,59:28
37,60:2
37,61:28
37,62:28
37,64:31
37,65:14
37,66:31
37,67:14
37,68:15
37,69:21
37,70:21
38,41:32
38,44:21
38,45:2
38,46:2
38,47:14
38,48:21
38,49:2
38,51:21
38,52:28
38,53:21
38,54:31
38,55:14
38,56:15
38,57:4
38,58:21
38,59:28
38,60:2
38,61:28
38,62:28
38,64:31
38,65:14
38,66:31
38,67:14
38,68:15
38,69:21
38,70:21
39,41:32
39,44:21
39,45:2
39,46:2
39,47:14
39,48:21
39,49:2
39,51:21
39,52:28
39,53:21
39,54:31
39,55:14
39,56:15
39,57:4
39,58:21
39,59:28
39,60:2
39,61:28
39,62:28
39,64:31
39,65:14
39,66:31
39,67:14
39,68:15
39,69:21
39,70:21
40,41:32
40,44:21
40,45:2
40,46:2
40,47:14
40,48:21
40,49:2
40,51:21
40,52:28
40,53:21
40,54:31
40,55:14
40,56:15
40,57:4
40,58:21
40,59:28
40,60:2
40,61:28
40,62:28
40,64:31
40,65:14
40,66:31
40,67:14
40,68:15
40,69:21
40,70:21
41,2:15
41,3:15
41,4:15
41,5:15
41,6:20
41,8:10
41,10:10
41,11:11
41,12:11
41,13:28
41,14:15
41,16:20
41,17:11
41,18:23
41,19:23
41,20:15
41,21:28
41,22:23
41,23:7
41,24:15
41,25:20
41,26:32
41,27:32
41,28:32
41,29:17
41,30:20
41,31:7
41,32:20
41,33:7
41,34:32
41,35:17
41,36:11
41,37:32
41,38:32
41,39:32
41,40:32
41,42:32
41,44:11
41,45:34
41,46:34
41,47:18
41,48:11
41,49:34
41,51:11
41,52:4
41,53:11
41,54:1
41,55:18
41,56:17
41,57:28
41,58:11
41,59:4
41,60:34
41,61:4
41,62:4
41,63:32
41,64:1
41,65:18
41,66:1
41,67:18
41,68:17
41,69:11
41,70:11
42,43:31
42,44:21
42,45:2
42,46:2
42,47:14
42,48:21
42,49:2
42,51:21
42,52:28
42,53:21
42,54:31
42,55:14
42,56:15
42,57:4
42,58:21
42,59:28
42,60:2
42,61:28
42,62:28
42,64:31
42,65:14
42,66:31
42,67:14
42,68:15
42,69:21
42,70:21
43,44:10
43,45:33
43,46:33
43,47:17
43,48:10
43,49:33
43,50:17
43,51:10
43,52:3
43,53:10
43,55:17
43,56:16
43,57:27
43,58:10
43,59:3
43,60:33
43,61:3
43,62:3
43,63:31
43,65:17
43,67:17
43,68:16
43,69:10
43,70:10
44,37:21
44,38:21
44,39:21
44,40:21
44,41:11
44,42:21
44,43:10
44,45:23
44,49:23
44,52:7
44,54:10
44,55:7
44,56:6
44,57:17
44,59:7
44,60:23
44,61:7
44,62:7
44,63:21
44,64:10
44,65:7
44,66:10
44,67:7
44,68:6
45,36:23
45,37:2
45,38:2
45,39:2
45,40:2
45,41:34
45,42:2
45,43:33
45,48:23
45,51:23
45,52:30
45,53:23
45,54:33
45,55:16
45,56:17
45,57:6
45,58:23
45,59:30
45,61:30
45,62:30
45,63:2
45,64:33
45,65:16
45,66:33
45,67:16
45,68:17
45,69:23
45,70:23
46,36:23
46,37:2
46,38:2
46,39:2
46,40:2
46,41:34
46,42:2
46,43:33
46,47:16
46,48:23
46,51:23
46,52:30
46,53:23
46,54:33
46,55:16
46,56:17
46,57:6
46,58:23
46,59:30
46,61:30
46,62:30
46,63:2
46,64:33
46,65:16
46,66:33
46,67:16
46,68:17
46,69:23
46,70:23
47,36:7
47,37:14
47,38:14
47,39:14
47,40:14
47,41:18
47,42:14
47,43:17
47,48:7
47,49:16
47,51:7
47,52:14
47,53:7
47,54:17
47,56:1
47,57:10
47,58:7
47,59:14
47,60:16
47,61:14
47,62:14
47,63:14
47,64:17
47,66:17
47,68:1
47,69:7
47,70:7
48,37:21
48,38:21
48,39:21
48,40:21
48,41:11
48,42:21
48,43:10
48,45:23
48,46:23
48,47:7
48,49:23
48,52:7
48,54:10
48,55:7
48,56:6
48,57:17
48,59:7
48,60:23
48,61:7
48,62:7
48,63:21
48,64:10
48,65:7
48,66:10
48,67:7
48,68:6
49,36:23
49,37:2
49,38:2
49,39:2
49,40:2
49,41:34
49,42:2
49,43:33
49,44:23
49,47:16
49,50:16
49,51:23
49,52:30
49,53:23
49,54:33
49,55:16
49,56:17
49,57:6
49,58:23
49,59:30
49,61:30
49,62:30
49,63:2
49,64:33
49,65:16
49,66:33
49,67:16
49,68:17
49,69:23
49,70:23
50,51:7
50,52:14
50,53:7
50,54:17
50,56:1
50,57:10
50,58:7
50,59:14
50,60:16
50,61:14
50,62:14
50,63:14
50,64:17
50,66:17
50,68:1
50,69:7
50,70:7
51,37:21
51,38:21
51,39:21
51,40:21
51,41:11
51,42:21
51,43:10
51,45:23
51,46:23
51,47:7
51,49:23
51,50:7
51,52:7
51,56:6
51,57:17
51,59:7
51,60:23
51,61:7
51,62:7
51,63:21
51,64:10
51,65:7
51,66:10
51,67:7
51,68:6
52,36:7
52,37:28
52,38:28
52,39:28
52,40:28
52,41:4
52,42:28
52,43:3
52,44:7
52,45:30
52,46:30
52,47:14
52,48:7
52,49:30
52,50:14
52,53:7
52,54:3
52,56:13
52,57:24
52,58:7
52,60:30
52,63:28
52,64:3
52,65:14
52,66:3
52,67:14
52,68:13
52,69:7
52,70:7
53,37:21
53,38:21
53,39:21
53,40:21
53,41:11
53,42:21
53,43:10
53,45:23
53,46:23
53,47:7
53,49:23
53,50:7
53,52:7
53,54:10
53,56:6
53,57:17
53,59:7
53,60:23
53,61:7
53,62:7
53,63:21
53,64:10
53,65:7
53,66:10
53,67:7
53,68:6
54,36:10
54,37:31
54,38:31
54,39:31
54,40:31
54,41:1
54,42:31
54,44:10
54,45:33
54,46:33
54,47:17
54,48:10
54,49:33
54,50:17
54,55:17
54,56:16
54,57:27
54,58:10
54,59:3
54,60:33
54,61:3
54,62:3
54,63:31
54,65:17
54,67:17
54,68:16
54,69:10
54,70:10
55,36:7
55,37:14
55,38:14
55,39:14
55,40:14
55,41:18
55,42:14
55,43:17
55,44:7
55,45:16
55,46:16
55,48:7
55,49:16
55,56:1
55,57:10
55,58:7
55,59:14
55,60:16
55,61:14
55,62:14
55,63:14
55,64:17
55,66:17
55,68:1
55,69:7
55,70:7
56,36:6
56,37:15
56,38:15
56,39:15
56,40:15
56,41:17
56,42:15
56,43:16
56,44:6
56,45:17
56,46:17
56,47:1
56,48:6
56,49:17
56,50:1
56,51:6
56,52:13
56,53:6
56,54:16
56,55:1
56,57:11
56,58:6
56,59:13
56,60:17
56,61:13
56,62:13
56,63:15
56,64:16
56,65:1
56,66:16
56,67:1
56,69:6
56,70:6
57,1:13
57,2:13
57,3:13
57,4:13
57,5:13
57,6:8
57,7:28
57,8:18
57,9:28
57,10:18
57,11:17
57,12:17
57,14:13
57,20:13
57,22:5
57,23:21
57,24:13
57,25:8
57,26:4
57,27:4
57,28:4
57,29:11
57,30:8
57,31:21
57,32:8
57,33:21
57,34:4
57,35:11
57,36:17
57,37:4
57,38:4
57,39:4
57,40:4
57,41:28
57,42:4
57,43:27
57,44:17
57,45:6
57,46:6
57,47:10
57,48:17
57,49:6
57,50:10
57,51:17
57,52:24
57,53:17
57,54:27
57,55:10
57,56:11
57,58:17
57,61:24
57,62:24
57,63:4
57,64:27
57,65:10
57,66:27
57,67:10
57,68:11
57,69:17
57,70:17
58,1:4
58,2:4
58,3:4
58,4:4
58,5:4
58,6:9
58,7:11
58,8:1
58,9:11
58,10:1
58,13:17
58,14:4
58,20:4
58,21:17
58,22:12
58,23:4
58,24:4
58,25:9
58,26:21
58,27:21
58,28:21
58,29:6
58,30:9
58,31:4
58,32:9
58,33:4
58,34:21
58,35:6
58,37:21
58,38:21
58,39:21
58,40:21
58,41:11
58,42:21
58,43:10
58,45:23
58,46:23
58,47:7
58,49:23
58,50:7
58,52:7
58,54:10
58,55:7
58,56:6
58,59:7
58,61:7
58,62:7
58,63:21
58,64:10
58,65:7
58,66:10
58,67:7
58,68:6
59,1:11
59,2:11
59,3:11
59,4:11
59,5:11
59,6:16
59,7:4
59,8:6
59,9:4
59,10:6
59,11:7
59,12:7
59,13:24
59,14:11
59,20:11
59,21:24
59,22:19
59,23:3
59,24:11
59,25:16
59,26:28
59,27:28
59,28:28
59,29:13
59,30:16
59,31:3
59,32:16
59,33:3
59,34:28
59,35:13
59,36:7
59,37:28
59,38:28
59,39:28
59,40:28
59,41:4
59,42:28
59,43:3
59,44:7
59,45:30
59,46:30
59,47:14
59,48:7
59,49:30
59,50:14
59,51:7
59,53:7
59,54:3
59,55:14
59,56:13
59,60:30
59,63:28
59,64:3
59,65:14
59,66:3
59,67:14
59,68:13
59,69:7
59,70:7
60,36:23
60,37:2
60,38:2
60,39:2
60,40:2
60,41:34
60,42:2
60,43:33
60,44:23
60,47:16
60,48:23
60,50:16
60,51:23
60,52:30
60,53:23
60,54:33
60,55:16
60,56:17
60,61:30
60,62:30
60,63:2
60,64:33
60,65:16
60,66:33
60,67:16
60,68:17
60,69:23
60,70:23
61,36:7
61,37:28
61,38:28
61,39:28
61,40:28
61,41:4
61,42:28
61,43:3
61,44:7
61,45:30
61,46:30
61,47:14
61,48:7
61,49:30
61,50:14
61,51:7
61,53:7
61,54:3
61,55:14
61,56:13
61,57:24
61,58:7
61,60:30
61,63:28
61,64:3
61,65:14
61,66:3
61,67:14
61,68:13
61,69:7
61,70:7
62,36:7
62,37:28
62,38:28
62,39:28
62,40:28
62,41:4
62,42:28
62,43:3
62,44:7
62,45:30
62,46:30
62,47:14
62,48:7
62,49:30
62,50:14
62,51:7
62,53:7
62,54:3
62,55:14
62,56:13
62,57:24
62,58:7
62,60:30
62,63:28
62,68:13
62,69:7
62,70:7
63,36:21
63,41:32
63,43:31
63,44:21
63,45:2
63,46:2
63,47:14
63,48:21
63,49:2
63,50:14
63,51:21
63,52:28
63,53:21
63,54:31
63,55:14
63,56:15
63,57:4
63,58:21
63,59:28
63,60:2
63,61:28
63,64:31
63,68:15
63,69:21
63,70:21
64,36:10
64,37:31
64,38:31
64,39:31
64,40:31
64,41:1
64,42:31
64,44:10
64,45:33
64,46:33
64,47:17
64,48:10
64,49:33
64,50:17
64,51:10
64,52:3
64,53:10
64,55:17
64,56:16
64,57:27
64,58:10
64,59:3
64,60:33
64,61:3
64,65:17
64,67:17
64,68:16
64,69:10
64,70:10
65,36:7
65,37:14
65,38:14
65,39:14
65,40:14
65,41:18
65,42:14
65,43:17
65,44:7
65,45:16
65,46:16
65,48:7
65,49:16
65,51:7
65,52:14
65,53:7
65,54:17
65,56:1
65,57:10
65,58:7
65,59:14
65,60:16
65,66:17
65,68:1
65,69:7
65,70:7
66,36:10
66,37:31
66,38:31
66,39:31
66,40:31
66,41:1
66,42:31
66,44:10
66,45:33
66,46:33
66,47:17
66,48:10
66,49:33
66,50:17
66,51:10
66,52:3
66,53:10
66,55:17
66,56:16
66,57:27
66,58:10
66,59:3
66,60:33
66,61:3
66,65:17
66,67:17
66,68:16
66,69:10
66,70:10
67,36:7
67,37:14
67,38:14
67,39:14
67,40:14
67,41:18
67,42:14
67,43:17
67,44:7
67,45:16
67,46:16
67,48:7
67,49:16
67,51:7
67,52:14
67,53:7
67,54:17
67,56:1
67,57:10
67,58:7
67,59:14
67,60:16
67,61:14
67,66:17
67,68:1
67,69:7
67,70:7
68,4:2
68,5:2
68,6:3
68,7:17
68,8:7
68,9:17
68,10:7
68,11:6
68,12:6
68,13:11
68,14:2
68,15:17
68,16:3
68,17:6
68,18:6
68,19:6
68,20:2
68,21:11
68,22:6
68,23:10
68,24:2
68,25:3
68,26:15
68,27:15
68,28:15
68,30:3
68,31:10
68,32:3
68,33:10
68,34:15
68,36:6
68,37:15
68,38:15
68,39:15
68,40:15
68,41:17
68,42:15
68,43:16
68,44:6
68,45:17
68,46:17
68,47:1
68,48:6
68,49:17
68,50:1
68,51:6
68,52:13
68,53:6
68,54:16
68,55:1
68,57:11
68,58:6
68,59:13
68,60:17
68,61:13
68,62:13
68,63:15
68,64:16
68,65:1
68,66:16
68,67:1
68,69:6
68,70:6
69,2:4
69,3:4
69,4:4
69,5:4
69,6:9
69,7:11
69,8:1
69,9:11
69,10:1
69,13:17
69,14:4
69,15:11
69,16:9
69,18:12
69,19:12
69,20:4
69,21:17
69,22:12
69,23:4
69,24:4
69,25:9
69,26:21
69,27:21
69,28:21
69,29:6
69,30:9
69,31:4
69,32:9
69,33:4
69,34:21
69,35:6
69,37:21
69,38:21
69,39:21
69,40:21
69,41:11
69,42:21
69,43:10
69,45:23
69,46:23
69,47:7
69,49:23
69,50:7
69,52:7
69,54:10
69,55:7
69,56:6
69,57:17
69,59:7
69,60:23
69,61:7
69,62:7
69,63:21
69,64:10
69,65:7
69,66:10
69,67:7
69,68:6
70,2:4
70,3:4
70,4:4
70,5:4
70,6:9
70,7:11
70,8:1
70,9:11
70,10:1
70,13:17
70,14:4
70,15:11
70,16:9
70,18:12
70,19:12
70,20:4
70,21:17
70,22:12
70,23:4
70,24:4
70,25:9
70,26:21
70,27:21
70,28:21
70,29:6
70,30:9
70,31:4
70,32:9
70,33:4
70,34:21
70,35:6
70,37:21
70,38:21
70,39:21
70,40:21
70,41:11
70,42:21
70,43:10
70,45:23
70,46:23
70,47:7
70,49:23
70,50:7
70,52:7
70,54:10
70,55:7
70,56:6
70,57:17
70,59:7
70,60:23
70,61:7
70,62:7
70,63:21
70,64:10
70,65:7
70,66:10
70,67:7
70,68:6

<setup times backward>
1,16:5
1,18:8
1,19:8
1,21:13
1,22:8
1,30:5
1,57:13
2,16:5
2,18:8
2,19:8
2,21:13
2,22:8
2,30:5
2,57:13
3,16:5
3,18:8
3,19:8
3,21:13
3,22:8
3,30:5
3,57:13
4,16:5
4,18:8
4,19:8
4,21:13
4,22:8
4,30:5
4,57:13
4,68:2
5,16:5
5,18:8
5,19:8
5,21:13
5,22:8
5,57:13
5,68:2
6,18:3
6,19:3
6,21:8
6,22:3
6,57:8
7,1:15
7,2:15
7,3:15
7,4:15
7,5:15
7,6:20
7,10:10
7,11:11
7,16:20
7,17:11
7,18:23
7,19:23
7,20:15
7,21:28
7,22:23
7,24:15
7,30:20
7,57:28
7,58:11
7,59:4
7,68:17
7,69:11
7,70:11
8,1:5
8,2:5
8,3:5
8,4:5
8,5:5
8,6:10
8,11:1
8,16:10
8,17:1
8,18:13
8,19:13
8,20:5
8,21:18
8,22:13
8,24:5
8,30:10
8,57:18
8,58:1
8,68:7
8,69:1
8,70:1
9,1:15
9,2:15
9,3:15
9,4:15
9,5:15
9,6:20
9,8:10
9,16:20
9,17:11
9,18:23
9,19:23
9,20:15
9,21:28
9,22:23
9,24:15
9,30:20
9,57:28
9,58:11
9,59:4
9,68:17
9,69:11
9,70:11
10,1:5
10,2:5
10,3:5
10,4:5
10,5:5
10,6:10
10,16:10
10,17:1
10,18:13
10,19:13
10,20:5
10,21:18
10,22:13
10,24:5
10,30:10
10,57:18
10,58:1
10,68:7
10,69:1
10,70:1
11,1:4
11,2:4
11,3:4
11,4:4
11,5:4
11,6:9
11,16:9
11,18:12
11,19:12
11,20:4
11,21:17
11,22:12
11,24:4
11,30:9
11,57:17
11,68:6
12,1:4
12,2:4
12,3:4
12,4:4
12,5:4
12,6:9
12,16:9
12,18:12
12,19:12
12,20:4
12,21:17
12,22:12
12,24:4
12,30:9
12,57:17
12,68:6
14,6:5
14,13:13
14,16:5
14,18:8
14,19:8
14,21:13
14,22:8
14,30:5
14,57:13
14,68:2
15,1:15
15,2:15
15,3:15
15,4:15
15,5:15
15,6:20
15,8:10
15,10:10
15,11:11
15,12:11
15,13:28
15,14:15
15,24:15
15,30:20
15,68:17
15,69:11
15,70:11
16,13:8
17,1:4
17,2:4
17,3:4
17,4:4
17,5:4
17,6:9
17,13:17
17,14:4
17,16:9
17,18:12
17,24:4
17,30:9
17,68:6
18,13:5
19,13:5
20,6:5
20,13:13
20,16:5
20,18:8
20,19:8
20,22:8
20,30:5
20,57:13
20,68:2
22,13:5
22,21:5
22,57:5
23,1:8
23,2:8
23,3:8
23,4:8
23,5:8
23,6:13
23,8:3
23,10:3
23,11:4
23,12:4
23,13:21
23,14:8
23,16:13
23,17:4
23,18:16
23,19:16
23,20:8
23,21:21
23,22:16
23,24:8
23,30:13
23,57:21
23,58:4
23,68:10
23,69:4
23,70:4
24,6:5
24,13:13
24,16:5
24,18:8
24,19:8
24,21:13
24,22:8
24,30:5
24,32:5
24,34:17
24,57:13
24,68:2
25,13:8
25,18:3
25,19:3
25,21:8
25,22:3
25,34:12
25,57:8
29,6:3
29,13:11
29,16:3
29,18:6
29,19:6
29,21:11
29,22:6
29,25:3
29,26:15
29,27:15
29,28:15
29,30:3
29,32:3
29,34:15
29,57:11
30,13:8
30,18:3
30,19:3
30,21:8
30,22:3
30,26:12
30,27:12
30,28:12
30,34:12
30,57:8
31,1:8
31,2:8
31,3:8
31,4:8
31,5:8
31,6:13
31,8:3
31,10:3
31,11:4
31,12:4
31,13:21
31,14:8
31,16:13
31,17:4
31,18:16
31,19:16
31,20:8
31,21:21
31,22:16
31,24:8
31,25:13
31,26:25
31,27:25
31,28:25
31,29:10
31,30:13
31,34:25
31,57:21
31,58:4
31,68:10
31,69:4
31,70:4
32,13:8
32,18:3
32,19:3
32,21:8
32,22:3
32,26:12
32,27:12
32,28:12
32,34:12
32,57:8
33,1:8
33,2:8
33,3:8
33,4:8
33,5:8
33,6:13
33,8:3
33,10:3
33,11:4
33,12:4
33,13:21
33,14:8
33,16:13
33,17:4
33,18:16
33,19:16
33,20:8
33,21:21
33,22:16
33,24:8
33,25:13
33,26:25
33,27:25
33,28:25
33,29:10
33,30:13
33,32:13
33,57:21
33,58:4
33,68:10
33,69:4
33,70:4
35,6:3
35,13:11
35,16:3
35,18:6
35,19:6
35,21:11
35,22:6
35,25:3
35,26:15
35,27:15
35,28:15
35,30:3
35,32:3
35,34:15
35,57:11
36,1:4
36,2:4
36,3:4
36,4:4
36,5:4
36,6:9
36,13:17
36,14:4
36,16:9
36,18:12
36,19:12
36,20:4
36,21:17
36,22:12
36,24:4
36,25:9
36,26:21
36,27:21
36,28:21
36,29:6
36,30:9
36,32:9
36,34:21
36,35:6
36,45:23
36,46:23
36,47:7
36,49:23
36,55:7
36,56:6
36,57:17
36,60:23
36,63:21
36,65:7
36,67:7
36,68:6
37,45:2
37,46:2
37,49:2
37,60:2
38,45:2
38,46:2
38,49:2
38,60:2
39,45:2
39,46:2
39,49:2
39,60:2
40,45:2
40,46:2
40,49:2
40,60:2
41,1:15
41,2:15
41,3:15
41,4:15
41,5:15
41,6:20
41,8:10
41,10:10
41,11:11
41,12:11
41,13:28
41,14:15
41,16:20
41,17:11
41,18:23
41,19:23
41,20:15
41,21:28
41,22:23
41,23:7
41,24:15
41,25:20
41,26:32
41,27:32
41,28:32
41,29:17
41,30:20
41,31:7
41,32:20
41,33:7
41,34:32
41,35:17
41,36:11
41,37:32
41,38:32
41,39:32
41,40:32
41,44:11
41,45:34
41,46:34
41,47:18
41,48:11
41,49:34
41,51:11
41,52:4
41,53:11
41,54:1
41,55:18
41,56:17
41,57:28
41,58:11
41,59:4
41,60:34
41,61:4
41,62:4
41,63:32
41,64:1
41,65:18
41,66:1
41,67:18
41,68:17
41,69:11
41,70:11
42,45:2
42,46:2
42,49:2
42,60:2
43,1:14
43,2:14
43,3:14
43,4:14
43,5:14
43,6:19
43,8:9
43,10:9
43,11:10
43,12:10
43,13:27
43,14:14
43,16:19
43,17:10
43,18:22
43,19:22
43,20:14
43,21:27
43,22:22
43,23:6
43,24:14
43,25:19
43,26:31
43,27:31
43,28:31
43,29:16
43,30:19
43,31:6
43,32:19
43,33:6
43,34:31
43,35:16
43,36:10
43,37:31
43,38:31
43,39:31
43,40:31
43,42:31
43,44:10
43,45:33
43,46:33
43,47:17
43,48:10
43,49:33
43,51:10
43,52:3
43,53:10
43,55:17
43,56:16
43,57:27
43,58:10
43,59:3
43,60:33
43,61:3
43,62:3
43,63:31
43,65:17
43,67:17
43,68:16
43,69:10
43,70:10
44,1:4
44,2:4
44,3:4
44,4:4
44,5:4
44,6:9
44,13:17
44,14:4
44,16:9
44,18:12
44,19:12
44,20:4
44,21:17
44,22:12
44,24:4
44,25:9
44,26:21
44,27:21
44,28:21
44,29:6
44,30:9
44,32:9
44,34:21
44,35:6
44,37:21
44,38:21
44,39:21
44,40:21
44,42:21
44,49:23
44,55:7
44,56:6
44,57:17
44,60:23
44,63:21
44,65:7
44,67:7
44,68:6
47,6:2
47,13:10
47,16:2
47,18:5
47,19:5
47,21:10
47,22:5
47,25:2
47,26:14
47,27:14
47,28:14
47,30:2
47,32:2
47,34:14
47,37:14
47,38:14
47,39:14
47,40:14
47,42:14
47,45:16
47,46:16
47,49:16
47,57:10
47,60:16
47,63:14
48,1:4
48,2:4
48,3:4
48,4:4
48,5:4
48,6:9
48,13:17
48,14:4
48,16:9
48,18:12
48,19:12
48,20:4
48,21:17
48,22:12
48,24:4
48,25:9
48,26:21
48,27:21
48,28:21
48,29:6
48,30:9
48,32:9
48,34:21
48,35:6
48,37:21
48,38:21
48,39:21
48,40:21
48,42:21
48,45:23
48,46:23
48,47:7
48,55:7
48,56:6
48,57:17
48,60:23
48,63:21
48,65:7
48,67:7
48,68:6
50,6:2
50,13:10
50,16:2
50,18:5
50,19:5
50,21:10
50,22:5
50,25:2
50,26:14
50,27:14
50,28:14
50,30:2
50,32:2
50,34:14
50,37:14
50,38:14
50,39:14
50,40:14
50,42:14
50,45:16
50,46:16
50,49:16
50,57:10
50,60:16
50,63:14
51,1:4
51,2:4
51,3:4
51,4:4
51,5:4
51,6:9
51,13:17
51,14:4
51,16:9
51,18:12
51,19:12
51,20:4
51,21:17
51,22:12
51,24:4
51,25:9
51,26:21
51,27:21
51,28:21
51,29:6
51,30:9
51,32:9
51,34:21
51,35:6
51,37:21
51,38:21
51,39:21
51,40:21
51,42:21
51,45:23
51,46:23
51,47:7
51,49:23
51,50:7
51,56:6
51,57:17
51,60:23
51,63:21
51,65:7
51,67:7
51,68:6
52,1:11
52,2:11
52,3:11
52,4:11
52,5:11
52,6:16
52,8:6
52,10:6
52,11:7
52,12:7
52,13:24
52,14:11
52,16:16
52,17:7
52,18:19
52,19:19
52,20:11
52,21:24
52,22:19
52,23:3
52,24:11
52,25:16
52,26:28
52,27:28
52,28:28
52,29:13
52,30:16
52,31:3
52,32:16
52,33:3
52,34:28
52,35:13
52,36:7
52,37:28
52,38:28
52,39:28
52,40:28
52,42:28
52,44:7
52,45:30
52,46:30
52,47:14
52,48:7
52,49:30
52,50:14
52,51:7
52,53:7
52,56:13
52,57:24
52,58:7
52,60:30
52,63:28
52,65:14
52,67:14
52,68:13
52,69:7
52,70:7
53,1:4
53,2:4
53,3:4
53,4:4
53,5:4
53,6:9
53,13:17
53,14:4
53,16:9
53,18:12
53,19:12
53,20:4
53,21:17
53,22:12
53,24:4
53,25:9
53,26:21
53,27:21
53,28:21
53,29:6
53,30:9
53,32:9
53,34:21
53,35:6
53,37:21
53,38:21
53,39:21
53,40:21
53,42:21
53,45:23
53,46:23
53,47:7
53,49:23
53,50:7
53,56:6
53,57:17
53,60:23
53,63:21
53,65:7
53,67:7
53,68:6
54,1:14
54,2:14
54,3:14
54,4:14
54,5:14
54,6:19
54,8:9
54,10:9
54,11:10
54,12:10
54,13:27
54,14:14
54,16:19
54,17:10
54,18:22
54,19:22
54,20:14
54,21:27
54,22:22
54,23:6
54,24:14
54,25:19
54,26:31
54,27:31
54,28:31
54,29:16
54,30:19
54,31:6
54,32:19
54,33:6
54,34:31
54,35:16
54,36:10
54,37:31
54,38:31
54,39:31
54,40:31
54,42:31
54,44:10
54,45:33
54,46:33
54,47:17
54,48:10
54,49:33
54,50:17
54,51:10
54,52:3
54,53:10
54,56:16
54,57:27
54,58:10
54,59:3
54,60:33
54,61:3
54,62:3
54,63:31
54,65:17
54,67:17
54,68:16
54,69:10
54,70:10
55,6:2
55,13:10
55,16:2
55,18:5
55,19:5
55,21:10
55,22:5
55,25:2
55,26:14
55,27:14
55,28:14
55,30:2
55,32:2
55,34:14
55,37:14
55,38:14
55,39:14
55,40:14
55,42:14
55,45:16
55,46:16
55,49:16
55,57:10
55,60:16
55,63:14
56,6:3
56,13:11
56,16:3
56,18:6
56,19:6
56,21:11
56,22:6
56,25:3
56,26:15
56,27:15
56,28:15
56,30:3
56,32:3
56,34:15
56,37:15
56,38:15
56,39:15
56,40:15
56,42:15
56,45:17
56,46:17
56,47:1
56,49:17
56,50:1
56,55:1
56,57:11
56,60:17
56,63:15
56,65:1
56,67:1
57,26:4
57,27:4
57,28:4
57,34:4
57,37:4
57,38:4
57,39:4
57,40:4
57,42:4
57,45:6
57,46:6
57,49:6
57,63:4
58,1:4
58,2:4
58,3:4
58,4:4
58,5:4
58,6:9
58,13:17
58,14:4
58,16:9
58,18:12
58,19:12
58,20:4
58,21:17
58,22:12
58,24:4
58,25:9
58,26:21
58,27:21
58,28:21
58,29:6
58,30:9
58,32:9
58,34:21
58,35:6
58,37:21
58,38:21
58,39:21
58,40:21
58,42:21
58,45:23
58,46:23
58,47:7
58,49:23
58,50:7
58,55:7
58,56:6
58,57:17
58,63:21
58,65:7
58,67:7
58,68:6
59,1:11
59,2:11
59,3:11
59,4:11
59,5:11
59,6:16
59,8:6
59,10:6
59,11:7
59,12:7
59,13:24
59,14:11
59,16:16
59,17:7
59,18:19
59,19:19
59,20:11
59,21:24
59,22:19
59,23:3
59,24:11
59,25:16
59,26:28
59,27:28
59,28:28
59,29:13
59,30:16
59,31:3
59,32:16
59,33:3
59,34:28
59,35:13
59,36:7
59,37:28
59,38:28
59,39:28
59,40:28
59,42:28
59,44:7
59,45:30
59,46:30
59,47:14
59,48:7
59,49:30
59,50:14
59,51:7
59,53:7
59,55:14
59,56:13
59,57:24
59,58:7
59,63:28
59,65:14
59,67:14
59,68:13
59,69:7
59,70:7
61,1:11
61,2:11
61,3:11
61,4:11
61,5:11
61,6:16
61,8:6
61,10:6
61,11:7
61,12:7
61,13:24
61,14:11
61,16:16
61,17:7
61,18:19
61,19:19
61,20:11
61,21:24
61,22:19
61,23:3
61,24:11
61,25:16
61,26:28
61,27:28
61,28:28
61,29:13
61,30:16
61,31:3
61,32:16
61,33:3
61,34:28
61,35:13
61,36:7
61,37:28
61,38:28
61,39:28
61,40:28
61,42:28
61,44:7
61,45:30
61,46:30
61,47:14
61,48:7
61,49:30
61,50:14
61,51:7
61,53:7
61,55:14
61,56:13
61,57:24
61,58:7
61,60:30
61,63:28
61,67:14
61,68:13
61,69:7
61,70:7
62,1:11
62,2:11
62,3:11
62,4:11
62,5:11
62,6:16
62,8:6
62,10:6
62,11:7
62,12:7
62,13:24
62,14:11
62,16:16
62,17:7
62,18:19
62,19:19
62,20:11
62,21:24
62,22:19
62,23:3
62,24:11
62,25:16
62,26:28
62,27:28
62,28:28
62,29:13
62,30:16
62,31:3
62,32:16
62,33:3
62,34:28
62,35:13
62,36:7
62,37:28
62,38:28
62,39:28
62,40:28
62,42:28
62,44:7
62,45:30
62,46:30
62,47:14
62,48:7
62,49:30
62,50:14
62,51:7
62,53:7
62,55:14
62,56:13
62,57:24
62,58:7
62,60:30
62,68:13
62,69:7
62,70:7
63,45:2
63,46:2
63,49:2
63,60:2
64,1:14
64,2:14
64,3:14
64,4:14
64,5:14
64,6:19
64,8:9
64,10:9
64,11:10
64,12:10
64,13:27
64,14:14
64,16:19
64,17:10
64,18:22
64,19:22
64,20:14
64,21:27
64,22:22
64,23:6
64,24:14
64,25:19
64,26:31
64,27:31
64,28:31
64,29:16
64,30:19
64,31:6
64,32:19
64,33:6
64,34:31
64,35:16
64,36:10
64,37:31
64,38:31
64,39:31
64,40:31
64,42:31
64,44:10
64,45:33
64,46:33
64,47:17
64,48:10
64,49:33
64,50:17
64,51:10
64,52:3
64,53:10
64,55:17
64,56:16
64,57:27
64,58:10
64,59:3
64,60:33
64,61:3
64,62:3
64,63:31
64,68:16
64,69:10
64,70:10
65,6:2
65,13:10
65,16:2
65,18:5
65,19:5
65,21:10
65,22:5
65,25:2
65,26:14
65,27:14
65,28:14
65,30:2
65,32:2
65,34:14
65,37:14
65,38:14
65,39:14
65,40:14
65,42:14
65,45:16
65,46:16
65,49:16
65,57:10
65,60:16
65,63:14
66,1:14
66,2:14
66,3:14
66,4:14
66,5:14
66,6:19
66,8:9
66,10:9
66,11:10
66,12:10
66,13:27
66,14:14
66,16:19
66,17:10
66,18:22
66,19:22
66,20:14
66,21:27
66,22:22
66,23:6
66,24:14
66,25:19
66,26:31
66,27:31
66,28:31
66,29:16
66,30:19
66,31:6
66,32:19
66,33:6
66,34:31
66,35:16
66,36:10
66,37:31
66,38:31
66,39:31
66,40:31
66,42:31
66,44:10
66,45:33
66,46:33
66,47:17
66,48:10
66,49:33
66,50:17
66,51:10
66,52:3
66,53:10
66,55:17
66,56:16
66,57:27
66,58:10
66,59:3
66,60:33
66,61:3
66,62:3
66,63:31
66,65:17
66,67:17
66,68:16
66,69:10
66,70:10
67,6:2
67,13:10
67,16:2
67,18:5
67,19:5
67,21:10
67,22:5
67,25:2
67,26:14
67,27:14
67,28:14
67,30:2
67,32:2
67,34:14
67,37:14
67,38:14
67,39:14
67,40:14
67,42:14
67,45:16
67,46:16
67,49:16
67,57:10
67,60:16
67,63:14
68,6:3
68,13:11
68,16:3
68,18:6
68,19:6
68,21:11
68,22:6
68,25:3
68,26:15
68,27:15
68,28:15
68,30:3
68,32:3
68,34:15
68,37:15
68,38:15
68,39:15
68,40:15
68,42:15
68,45:17
68,46:17
68,47:1
68,49:17
68,50:1
68,55:1
68,57:11
68,60:17
68,63:15
68,65:1
68,67:1
69,1:4
69,2:4
69,3:4
69,4:4
69,5:4
69,6:9
69,13:17
69,14:4
69,16:9
69,18:12
69,19:12
69,20:4
69,21:17
69,22:12
69,24:4
69,25:9
69,26:21
69,27:21
69,28:21
69,29:6
69,30:9
69,32:9
69,34:21
69,35:6
69,37:21
69,38:21
69,39:21
69,40:21
69,42:21
69,45:23
69,46:23
69,47:7
69,49:23
69,50:7
69,55:7
69,56:6
69,57:17
69,60:23
69,63:21
69,65:7
69,67:7
69,68:6
70,1:4
70,2:4
70,3:4
70,4:4
70,5:4
70,6:9
70,13:17
70,14:4
70,16:9
70,18:12
70,19:12
70,20:4
70,21:17
70,22:12
70,24:4
70,25:9
70,26:21
70,27:21
70,28:21
70,29:6
70,30:9
70,32:9
70,34:21
70,35:6
70,37:21
70,38:21
70,39:21
70,40:21
70,42:21
70,45:23
70,46:23
70,47:7
70,49:23
70,50:7
70,55:7
70,56:6
70,57:17
70,60:23
70,63:21
70,65:7
70,67:7
70,68:6

<end>

<optimal SALBP-1 value>
18


<rand seed>
467321153

<Lower Bounds>
Lm1=17
Lms1=17
Lm2=7
Lm3=11
Lm4=17
Best=17

<Optimal Stations (Iterations: 10)>
23
